p edge 131 281
e 1 3
e 1 10
e 1 12
e 1 14
e 1 15
e 1 19
e 1 20
e 1 24
e 1 25
e 1 27
e 1 29
e 1 47
e 1 63
e 1 73
e 1 79
e 1 94
e 1 97
e 1 112
e 1 113
e 2 5
e 2 13
e 2 25
e 2 34
e 2 59
e 2 76
e 2 114
e 2 118
e 3 10
e 3 15
e 3 19
e 3 24
e 3 25
e 3 27
e 3 40
e 3 63
e 3 73
e 3 76
e 3 94
e 3 97
e 3 110
e 4 7
e 4 11
e 4 14
e 4 20
e 4 22
e 4 23
e 4 26
e 4 27
e 4 29
e 4 32
e 4 37
e 4 67
e 5 7
e 5 26
e 5 32
e 5 34
e 5 39
e 5 49
e 5 56
e 5 92
e 5 121
e 5 122
e 5 126
e 6 8
e 6 16
e 6 21
e 6 31
e 6 33
e 6 43
e 6 60
e 6 64
e 6 67
e 6 111
e 7 15
e 7 19
e 7 24
e 7 26
e 7 92
e 7 131
e 8 16
e 8 43
e 9 11
e 9 19
e 9 26
e 9 44
e 9 45
e 9 55
e 9 69
e 9 104
e 10 19
e 10 20
e 10 24
e 10 85
e 11 26
e 11 33
e 11 67
e 11 69
e 12 21
e 12 31
e 12 47
e 12 48
e 13 16
e 13 25
e 13 84
e 13 85
e 13 118
e 13 124
e 14 18
e 14 20
e 14 22
e 14 27
e 14 29
e 14 37
e 14 42
e 14 57
e 14 79
e 14 82
e 14 113
e 15 20
e 15 24
e 15 25
e 15 27
e 15 63
e 15 73
e 15 94
e 15 97
e 16 43
e 16 65
e 16 85
e 16 86
e 16 102
e 17 35
e 17 80
e 17 82
e 18 30
e 18 36
e 18 39
e 19 20
e 19 24
e 19 69
e 20 22
e 20 27
e 20 37
e 20 85
e 21 62
e 21 64
e 22 23
e 22 27
e 22 29
e 22 37
e 22 72
e 22 79
e 23 29
e 23 72
e 24 25
e 24 63
e 24 94
e 25 63
e 25 94
e 25 112
e 25 118
e 26 32
e 26 69
e 26 92
e 27 37
e 27 40
e 28 57
e 28 127
e 29 37
e 29 72
e 29 79
e 29 113
e 30 36
e 31 60
e 31 103
e 32 41
e 32 74
e 33 67
e 33 111
e 33 125
e 34 38
e 34 49
e 35 51
e 35 82
e 37 79
e 38 49
e 39 56
e 39 121
e 39 122
e 40 46
e 40 93
e 40 109
e 41 74
e 42 57
e 42 66
e 42 80
e 42 82
e 42 91
e 42 120
e 44 45
e 44 49
e 44 55
e 44 74
e 44 104
e 44 123
e 45 49
e 45 55
e 45 74
e 45 104
e 45 123
e 46 48
e 46 68
e 46 107
e 46 109
e 47 50
e 47 52
e 48 68
e 48 107
e 49 74
e 49 123
e 49 126
e 50 52
e 50 105
e 50 106
e 51 54
e 51 75
e 52 81
e 53 83
e 54 75
e 55 104
e 56 121
e 56 122
e 57 82
e 57 127
e 58 88
e 59 76
e 59 87
e 59 128
e 60 95
e 60 96
e 61 62
e 61 66
e 61 70
e 61 77
e 61 78
e 62 77
e 62 78
e 63 94
e 63 98
e 65 86
e 65 102
e 66 70
e 66 80
e 66 91
e 67 111
e 68 107
e 68 115
e 68 116
e 68 117
e 71 83
e 71 108
e 73 97
e 74 123
e 76 110
e 77 78
e 79 113
e 80 86
e 80 91
e 81 119
e 87 90
e 87 129
e 89 101
e 90 129
e 90 130
e 95 96
e 99 100
e 105 106
e 115 116
e 115 117
e 116 117
e 121 122
